
Gurobi 12.0.1 (win64, C++) logging started Tue Apr 22 09:15:37 2025

Set parameter Username
Set parameter LicenseID to value 2618661
Academic license - for non-commercial use only - expires 2026-02-05
Set parameter Threads to value 8
Set parameter LazyConstraints to value 1
Set parameter PreCrush to value 1
Set parameter Seed to value 10
Set parameter Cuts to value -1
Set parameter TimeLimit to value 28800
Set parameter NumericFocus to value 0
Set parameter SolutionLimit to value 10000
Gurobi Optimizer version 12.0.1 build v12.0.1rc0 (win64 - Windows Server 2022.0 (20348.2))

CPU model: AMD EPYC 7513 32-Core Processor, instruction set [SSE2|AVX|AVX2]
Thread count: 18 physical cores, 18 logical processors, using up to 8 threads

Non-default parameters:
SolutionLimit  10000
TimeLimit  28800
PreCrush  1
Seed  10
Threads  8
LazyConstraints  1

Optimize a model with 466 rows, 900 columns and 2610 nonzeros
Model fingerprint: 0x7196854e
Variable types: 0 continuous, 900 integer (900 binary)
Coefficient statistics:
  Matrix range     [1e+00, 1e+00]
  Objective range  [1e+00, 1e+02]
  Bounds range     [1e+00, 1e+00]
  RHS range        [1e+00, 4e+00]

Warning: Completing partial solution with 835 unfixed non-continuous variables out of 900
User MIP start produced solution with objective 742.73 (0.00s)
Loaded user MIP start with objective 742.73

Presolve removed 2 rows and 32 columns
Presolve time: 0.01s
Presolved: 464 rows, 868 columns, 2517 nonzeros
Variable types: 0 continuous, 868 integer (868 binary)

Root relaxation: objective 3.735250e+02, 91 iterations, 0.00 seconds (0.00 work units)

    Nodes    |    Current Node    |     Objective Bounds      |     Work
 Expl Unexpl |  Obj  Depth IntInf | Incumbent    BestBd   Gap | It/Node Time

     0     0  373.52496    0   20  742.72978  373.52496  49.7%     -    0s
     0     0  496.62140    0    -  742.72978  496.62140  33.1%     -    0s
     0     0  507.16879    0    4  742.72978  507.16879  31.7%     -    0s
     0     0  517.76532    0    -  742.72978  517.76532  30.3%     -    0s
     0     0  524.59401    0    -  742.72978  524.59401  29.4%     -    0s
     0     0  526.44658    0   31  742.72978  526.44658  29.1%     -    0s
     0     0  537.34063    0    -  742.72978  537.34063  27.7%     -    0s
     0     0  538.02835    0   26  742.72978  538.02835  27.6%     -    0s
     0     0  547.20703    0   10  742.72978  547.20703  26.3%     -    0s
     0     2  547.20703    0   10  742.72978  547.20703  26.3%     -    0s
*   29    10               2     553.3760310  551.92460  0.26%   9.2    0s

Cutting planes:
  Cover: 1
  Lazy constraints: 186

Explored 63 nodes (732 simplex iterations) in 0.52 seconds (0.14 work units)
Thread count was 8 (of 18 available processors)

Solution count 2: 553.376 742.73 

Optimal solution found (tolerance 1.00e-04)
Best objective 5.533760310356e+02, best bound 5.533760310356e+02, gap 0.0000%

User-callback calls 485, time in user-callback 0.22 sec
### START EXACT APPROACH ###
ProblemVariant: 6
### START PREPROCESSING ###
## Start infeasible path procedure ## 
Deleted arcs: 2
Infeasible tail paths: 0
Infeasible 2-node combinations: 1
Deleted arcs: 2
Infeasible tail paths: 0
Infeasible 2-node combinations: 1
## Start start solution procedure ##
Start solution with 4 Vehicles and total costs 742.73 in 0.0024998 s.
### END PREPROCESSING ###
Route 0 0-18-10-11-12-15-0 : weight util 0.416667 | volume util 0.991000 | 
Route 1 0-19-3-4-5-2-22-0 : weight util 0.894444 | volume util 0.894733 | 
Route 2 0-20-6-1-24-25-29-27-28-26-0 : weight util 0.800000 | volume util 0.991578 | 
Route 3 0-21-14-8-9-17-7-13-16-23-0 : weight util 0.722222 | volume util 0.998778 | 
